80 254599
34 2 19 44 66 80 67 71 59 11 40 20 6 46 74 69 63 72 17 1 57 26 77 52 73 30 14 13 41 37 23 53 27 45 28 47 5 24 51 62 54 10 70 49 75 15 78 43 76 38 39 22 36 31 32 21 3 48 33 64 56 18 7 9 68 79 60 29 61 16 58 8 35 65 55 25 12 42 4 50 
